N = 48;
M = 118;
Edge_Start = [1, 1, 2, 3, 3, 4, 5, 5, 6, 7, 7, 8, 9, 10, 11, 11, 12, 13, 13, 14, 15, 15, 16, 17, 17, 19, 20, 21, 22, 22, 23, 24, 24, 25, 26, 26, 28, 28, 30, 31, 32, 33, 33, 34, 35, 35, 36, 37, 37, 38, 39, 40, 41, 42, 43, 44, 45, 46, 47, 2, 10, 3, 4, 12, 5, 6, 14, 7, 8, 16, 9, 18, 11, 12, 21, 13, 14, 23, 15, 16, 25, 17, 18, 27, 29, 21, 22, 23, 32, 24, 25, 34, 26, 27, 36, 29, 38, 31, 40, 33, 34, 42, 35, 36, 44, 37, 38, 46, 39, 48, 41, 42, 43, 44, 45, 46, 47, 48];
Edge_End = [2, 10, 3, 4, 12, 5, 6, 14, 7, 8, 16, 9, 18, 11, 12, 21, 13, 14, 23, 15, 16, 25, 17, 18, 27, 29, 21, 22, 23, 32, 24, 25, 34, 26, 27, 36, 29, 38, 31, 40, 33, 34, 42, 35, 36, 44, 37, 38, 46, 39, 48, 41, 42, 43, 44, 45, 46, 47, 48, 1, 1, 2, 3, 3, 4, 5, 5, 6, 7, 7, 8, 9, 10, 11, 11, 12, 13, 13, 14, 15, 15, 16, 17, 17, 19, 20, 21, 22, 22, 23, 24, 24, 25, 26, 26, 28, 28, 30, 31, 32, 33, 33, 34, 35, 35, 36, 37, 37, 38, 39, 40, 41, 42, 43, 44, 45, 46, 47];
L = [1, 13, 11, 1, 18, 8, 12, 13, 1, 3, 5, 1, 15, 6, 8, 19, 5, 11, 10, 10, 10, 6, 16, 12, 6, 11, 2, 7, 12, 3, 7, 2, 12, 19, 6, 4, 14, 2, 1, 11, 4, 13, 15, 1, 18, 16, 5, 10, 9, 15, 11, 11, 3, 5, 8, 10, 2, 7, 13, 1, 13, 11, 1, 18, 8, 12, 13, 1, 3, 5, 1, 15, 6, 8, 19, 5, 11, 10, 10, 10, 6, 16, 12, 6, 11, 2, 7, 12, 3, 7, 2, 12, 19, 6, 4, 14, 2, 1, 11, 4, 13, 15, 1, 18, 16, 5, 10, 9, 15, 11, 11, 3, 5, 8, 10, 2, 7, 13];
T = [3, 19, 13, 4, 23, 9, 4, 13, 3, 1, 2, 1, 18, 1, 12, 16, 1, 5, 14, 13, 6, 12, 20, 8, 2, 18, 4, 5, 16, 13, 11, 1, 11, 23, 4, 1, 24, 1, 3, 9, 1, 14, 15, 3, 17, 19, 1, 11, 17, 5, 14, 1, 1, 4, 10, 12, 1, 1, 13, 3, 19, 13, 4, 23, 9, 4, 13, 3, 1, 2, 1, 18, 1, 12, 16, 1, 5, 14, 13, 6, 12, 20, 8, 2, 18, 4, 5, 16, 13, 11, 1, 11, 23, 4, 1, 24, 1, 3, 9, 1, 14, 15, 3, 17, 19, 1, 11, 17, 5, 14, 1, 1, 4, 10, 12, 1, 1, 13];
Lower_Bound = [0, 3, 16, 20, 29, 33, 36, 37, 38, 19, 20, 32, 33, 38, 44, 38, 58, 56, 120, 40, 36, 41, 47, 57, 56, 64, 60, 78, 102, 84, 81, 54, 55, 68, 71, 65, 66, 77, 82, 72, 71, 70, 74, 84, 84, 83, 84, 96];
Upper_Bound = [0, 3, 16, 20, 29, 33, 36, 37, 38, 19, 20, 32, 33, 38, 44, 38, 58, 56, 120, 40, 36, 41, 47, 57, 56, 64, 60, 78, 102, 84, 81, 54, 55, 68, 71, 65, 66, 77, 82, 72, 71, 70, 74, 84, 84, 83, 84, 96];
Start = 1;
End = 48;
Time = 96;
